Route #1: 1 50 37 30 44 38 18 35 31 
Route #2: 3 5 48 43 19 15 9 7 45 
Route #3: 4 28 22 2 42 23 32 16 12 
Route #4: 24 34 11 41 17 47 
Route #5: 25 52 13 21 14 39 
Route #6: 33 6 20 8 51 
Route #7: 40 26 10 36 49 29 27 46 
cost 1328.68
